(set-logic ALL)
(declare-fun seed0_T_1 () Bool)
(declare-fun seed0_T_2 () Bool)
(declare-fun seed0_T_3 () Bool)
(declare-fun seed0_T_4 () Bool)
(declare-fun seed0_T_5 () Bool)
(declare-fun seed0_T_6 () Bool)
(declare-fun seed0_T_7 () Bool)
(declare-fun seed0_T_8 () Bool)
(declare-fun seed0_T_9 () Bool)
(declare-fun seed0_T_a () Bool)
(declare-fun seed0_var_0xINPUT_57433 () String)
(assert (and (or (= seed0_T_1 (not (= "VEECEXk2pV" seed0_var_0xINPUT_57433))) (not (str.< (str.++ seed0_var_0xINPUT_57433 "e5awtQObSsLhNn3fy10o") (str.++ seed0_var_0xINPUT_57433 "gYxAtQ9aSzuR3K")))) (or (= seed0_T_2 (not seed0_T_1)) (str.contains (str.++ seed0_var_0xINPUT_57433 "ZS2C") (str.++ seed0_var_0xINPUT_57433 "Z0ISm3PXWuOK7d"))) (or seed0_T_2 (and (str.< (str.++ seed0_var_0xINPUT_57433 "5wotcFELqjZiHv2bPI6") (str.++ seed0_var_0xINPUT_57433 "edHNqv")) (str.< (str.++ seed0_var_0xINPUT_57433 "tbAiKX3np9fQ5ZYoj4mU") (str.++ seed0_var_0xINPUT_57433 "jyDQS")))) (or (= seed0_T_3 (not (= "" seed0_var_0xINPUT_57433))) (not (str.contains (str.++ seed0_var_0xINPUT_57433 "tekIqDhAar") (str.++ seed0_var_0xINPUT_57433 "4aM5NFr8ZPgfj")))) (or seed0_T_3 (=> (str.prefixof (str.++ seed0_var_0xINPUT_57433 "") (str.++ seed0_var_0xINPUT_57433 "Rgq3TzXJ")) (str.contains (str.++ seed0_var_0xINPUT_57433 "N0eK7GyRfDCYmB9OHVp") (str.++ seed0_var_0xINPUT_57433 "U9X3")))) (or (= seed0_T_4 (not (= seed0_var_0xINPUT_57433 "VEECEXk2pV"))) (=> (str.prefixof (str.++ seed0_var_0xINPUT_57433 "") (str.++ seed0_var_0xINPUT_57433 "ItVzwU")) (str.<= (str.++ seed0_var_0xINPUT_57433 "eXH75BClQDWidGAsnzj") (str.++ seed0_var_0xINPUT_57433 "MRNa8")))) (or (= seed0_T_5 (not seed0_T_4)) (xor (str.suffixof (str.++ seed0_var_0xINPUT_57433 "") (str.++ seed0_var_0xINPUT_57433 "KS913sXEcIYxBTUPZ")) (str.suffixof (str.++ seed0_var_0xINPUT_57433 "xR") (str.++ seed0_var_0xINPUT_57433 "PJx")))) (or seed0_T_5 (xor (str.<= (str.++ seed0_var_0xINPUT_57433 "") (str.++ seed0_var_0xINPUT_57433 "dJ6BXOylVcG2iwLqm0AH")) (str.prefixof (str.++ seed0_var_0xINPUT_57433 "ks7BrLVJCUeja0XAQF") (str.++ seed0_var_0xINPUT_57433 "iSqlJxo9csU")))) (or (= seed0_T_6 (not (= "VEECEXk2pV" seed0_var_0xINPUT_57433))) (=> (str.suffixof (str.++ seed0_var_0xINPUT_57433 "z4c") (str.++ seed0_var_0xINPUT_57433 "kVw")) (str.prefixof (str.++ seed0_var_0xINPUT_57433 "ks") (str.++ seed0_var_0xINPUT_57433 "AT0tEFvuVan53X8")))) (or (= seed0_T_7 (not seed0_T_6)) (xor (str.contains (str.++ seed0_var_0xINPUT_57433 "") (str.++ seed0_var_0xINPUT_57433 "LpDzrkwS6")) (str.contains (str.++ seed0_var_0xINPUT_57433 "anVv5k") (str.++ seed0_var_0xINPUT_57433 "xApJRU2ksC57Flw0")))) (or seed0_T_7 (=> (str.< (str.++ seed0_var_0xINPUT_57433 "rWzkZImpQqbvOYK0u4") (str.++ seed0_var_0xINPUT_57433 "tfL")) (str.< (str.++ seed0_var_0xINPUT_57433 "qmHCuwYgjNAxJdZl") (str.++ seed0_var_0xINPUT_57433 "Uz1YsBh")))) (or (= seed0_T_8 (= seed0_var_0xINPUT_57433 "")) (and (str.prefixof (str.++ seed0_var_0xINPUT_57433 "0OCf2uadWvbPDS") (str.++ seed0_var_0xINPUT_57433 "zwLYCVBvj0ASUoE2X8N3")) (str.< (str.++ seed0_var_0xINPUT_57433 "pk4TKZs7U") (str.++ seed0_var_0xINPUT_57433 "SfkQ7y5djY")))) (or (= seed0_T_9 (not seed0_T_8)) (not (str.contains (str.++ seed0_var_0xINPUT_57433 "N5bi") (str.++ seed0_var_0xINPUT_57433 "ixoPhv1KNqUBY")))) (or seed0_T_9 (and (str.contains (str.++ seed0_var_0xINPUT_57433 "HQL") (str.++ seed0_var_0xINPUT_57433 "krZLGc0zvXetw9Pp")) (str.prefixof (str.++ seed0_var_0xINPUT_57433 "Qte4EFGhu0I5") (str.++ seed0_var_0xINPUT_57433 "CKwsj6r0oHcS9b")))) (or (= seed0_T_a (not (= seed0_var_0xINPUT_57433 ""))) (not (str.contains (str.++ seed0_var_0xINPUT_57433 "") (str.++ seed0_var_0xINPUT_57433 "cQMkE0Fh")))) (or seed0_T_a (or (str.contains (str.++ seed0_var_0xINPUT_57433 "8l2inDGC") (str.++ seed0_var_0xINPUT_57433 "p32mvNSAWe")) (str.contains (str.++ seed0_var_0xINPUT_57433 "ncRBdQ5fi1Svta") (str.++ seed0_var_0xINPUT_57433 ""))))))
(check-sat)
(exit)